16
[-1, 251, 903, 0, 956, 756, 469, 727, 547, 0, 0, 953, 0, 0, 0, 414, 
0, -1, 238, 166, 0, 726, 0, 0, 0, 0, 999, 226, 0, 587, 0, 899, 
554, 0, -1, 218, 0, 531, 0, 280, 0, 772, 0, 0, 0, 987, 0, 326, 
0, 283, 666, -1, 0, 0, 0, 42, 907, 0, 0, 0, 864, 0, 0, 866, 
988, 702, 0, 477, -1, 682, 933, 0, 102, 166, 34, 777, 782, 864, 639, 564, 
13, 198, 0, 823, 91, -1, 0, 0, 969, 0, 0, 0, 0, 437, 771, 0, 
168, 0, 0, 0, 454, 0, -1, 82, 0, 0, 440, 0, 0, 0, 768, 0, 
0, 139, 0, 0, 0, 0, 618, -1, 0, 0, 0, 0, 122, 0, 310, 0, 
0, 0, 0, 0, 0, 77, 247, 0, -1, 0, 0, 440, 230, 0, 0, 0, 
0, 970, 861, 700, 0, 186, 0, 69, 936, -1, 0, 14, 0, 0, 0, 468, 
355, 0, 832, 158, 0, 0, 0, 491, 601, 519, -1, 848, 650, 610, 0, 734, 
686, 534, 0, 807, 0, 0, 42, 0, 0, 0, 0, -1, 597, 388, 242, 967, 
0, 414, 0, 410, 0, 0, 0, 340, 0, 0, 67, 941, -1, 0, 0, 0, 
0, 480, 0, 591, 0, 0, 759, 799, 191, 0, 311, 979, 0, -1, 365, 459, 
0, 0, 40, 400, 0, 107, 212, 0, 596, 0, 0, 78, 0, 0, -1, 902, 
0, 681, 973, 0, 445, 905, 0, 0, 0, 267, 0, 0, 0, 0, 0, -1]